(set-logic QF_S)
(declare-fun var0 () String)
(declare-fun var1 () String)
(declare-fun var2 () String)
(declare-fun var3 () String)
(declare-fun var4 () String)
(declare-fun var5 () String)
(declare-fun var6 () String)
(declare-fun var7 () String)
(declare-fun var8 () String)
(declare-fun var9 () String)
(declare-fun var10 () String)
(declare-fun var11 () String)
(declare-fun var12 () String)
(declare-fun var13 () String)
(declare-fun var14 () String)
(declare-fun var15 () String)
(declare-fun var16 () String)
(declare-fun var17 () String)
(declare-fun var18 () String)
(declare-fun var19 () String)
(declare-fun var20 () String)
(declare-fun var21 () String)
(declare-fun var22 () String)
(declare-fun var23 () String)
(declare-fun var24 () String)
(declare-fun var25 () String)
(declare-fun var26 () String)
(declare-fun var27 () String)
(declare-fun var28 () String)
(declare-fun var29 () String)
(declare-fun var30 () String)
(declare-fun var31 () String)
(declare-fun var32 () String)
(declare-fun var33 () String)
(declare-fun var34 () String)
(declare-fun var35 () String)
(declare-fun var36 () String)
(declare-fun var37 () String)
(declare-fun var38 () String)
(declare-fun var39 () String)
(declare-fun var40 () String)
(declare-fun var41 () String)
(declare-fun var42 () String)
(declare-fun var43 () String)
(declare-fun var44 () String)
(declare-fun var45 () String)
(declare-fun var46 () String)
(declare-fun var47 () String)
(declare-fun var48 () String)
(declare-fun var49 () String)
(declare-fun var50 () String)
(declare-fun var51 () String)
(declare-fun var52 () String)
(declare-fun var53 () String)
(declare-fun var54 () String)
(declare-fun var55 () String)
(declare-fun var56 () String)
(declare-fun var57 () String)
(declare-fun var58 () String)
(declare-fun var59 () String)
(declare-fun var60 () String)
(assert (= var0 (Concat var1 var2)))
(assert (= var2 (Concat var3 var4)))
(assert (= var4 (Concat var5 var6)))
(assert (= var6 (Concat var7 var8)))
(assert (= var8 (Concat var9 var10)))
(assert (= var10 (Concat var11 var12)))
(assert (= var12 (Concat var13 var14)))
(assert (= var14 (Concat var15 var16)))
(assert (= var16 (Concat var17 var18)))
(assert (= var18 (Concat var19 var20)))
(assert (= var20 (Concat var21 var22)))
(assert (= var22 (Concat var23 var24)))
(assert (= var24 (Concat var25 var26)))
(assert (= var26 (Concat var27 var28)))
(assert (= var28 (Concat var29 var30)))
(assert (= var30 (Concat var31 var32)))
(assert (= var32 (Concat var33 var34)))
(assert (= var34 (Concat var35 var36)))
(assert (= var36 (Concat var37 var38)))
(assert (= var38 (Concat var39 var40)))
(assert (= var40 (Concat var41 var42)))
(assert (= var42 (Concat var43 var44)))
(assert (= var44 (Concat var45 var46)))
(assert (= var46 (Concat var47 var48)))
(assert (= var48 (Concat var49 var50)))
(assert (= var50 (Concat var51 var52)))
(assert (= var52 (Concat var53 var54)))
(assert (= var54 (Concat var55 var56)))
(assert (= var56 (Concat var57 var58)))
(assert (= var58 (Concat var59 var60)))
(assert (= var0 "solution"))
(assert (= "m" (CharAt var47 118)))
(assert (= "n" (CharAt var5 940)))
(assert (= "r" (CharAt var8 623)))
(assert (= "i" (CharAt var8 33)))
(assert (= "." (CharAt var44 963)))
(assert (= ";" (CharAt var39 454)))
(assert (= "k" (CharAt var28 432)))
(assert (= "+" (CharAt var49 473)))
(assert (= "v" (CharAt var53 18)))
(assert (= "K" (CharAt var54 706)))
(assert (= "!" (CharAt var60 628)))
(assert (= "G" (CharAt var42 456)))
(assert (= "w" (CharAt var52 117)))
(assert (= ";" (CharAt var0 944)))
(assert (= "," (CharAt var48 363)))
(assert (= ";" (CharAt var6 494)))
(assert (= "[" (CharAt var6 20)))
(assert (= "I" (CharAt var27 887)))
(assert (= "p" (CharAt var22 643)))
(assert (= "G" (CharAt var58 754)))
(assert (= "u" (CharAt var33 956)))
(assert (= "#" (CharAt var36 855)))
(assert (= "i" (CharAt var49 307)))
(assert (= "@" (CharAt var39 274)))
(assert (= "g" (CharAt var8 529)))
(assert (= "S" (CharAt var10 927)))
(assert (= "K" (CharAt var14 883)))
(assert (= "8" (CharAt var46 344)))
(assert (= "S" (CharAt var40 795)))
(assert (= "@" (CharAt var35 909)))
(assert (= "]" (CharAt var6 517)))
(assert (= "J" (CharAt var49 675)))
(assert (= "P" (CharAt var54 773)))
(assert (= "]" (CharAt var20 641)))
(assert (= "?" (CharAt var39 817)))
(assert (= "p" (CharAt var31 464)))
(assert (= "F" (CharAt var7 135)))
(assert (= "9" (CharAt var21 57)))
(assert (= "$" (CharAt var24 824)))
(assert (= "+" (CharAt var54 502)))
(assert (= "$" (CharAt var48 732)))
(assert (= "e" (CharAt var38 715)))
(assert (= "*" (CharAt var59 296)))
(assert (= "A" (CharAt var57 161)))
(assert (= "-" (CharAt var41 148)))
(assert (= "C" (CharAt var51 89)))
(assert (= "K" (CharAt var52 369)))
(assert (= "B" (CharAt var50 46)))
(assert (= "w" (CharAt var38 420)))
(assert (= "b" (CharAt var60 264)))
(assert (= "N" (CharAt var30 467)))
(assert (= "j" (CharAt var17 823)))
(assert (= "!" (CharAt var34 223)))
(assert (= "h" (CharAt var15 816)))
(assert (= "n" (CharAt var16 727)))
(assert (= "." (CharAt var38 148)))
(assert (= "\\" (CharAt var21 467)))
(assert (= "R" (CharAt var16 307)))
(assert (= "&" (CharAt var26 383)))
(assert (= "!" (CharAt var42 721)))
(assert (= "8" (CharAt var26 398)))
(assert (= "D" (CharAt var58 733)))
(assert (= "F" (CharAt var48 326)))
(assert (= "j" (CharAt var60 552)))
(assert (= "C" (CharAt var20 735)))
(assert (= "K" (CharAt var17 653)))
(assert (= "k" (CharAt var8 165)))
(assert (= "x" (CharAt var28 549)))
(assert (= "o" (CharAt var17 970)))
(assert (= "7" (CharAt var48 388)))
(assert (= "i" (CharAt var38 291)))
(assert (= "g" (CharAt var1 251)))
(assert (= "j" (CharAt var56 457)))
(assert (= "-" (CharAt var22 903)))
(assert (= "}" (CharAt var4 543)))
(assert (= "F" (CharAt var59 292)))
(assert (= "e" (CharAt var60 882)))
(assert (= "-" (CharAt var44 672)))
(assert (= "3" (CharAt var4 130)))
(assert (= "n" (CharAt var13 656)))
(assert (= "@" (CharAt var41 355)))
(assert (= "B" (CharAt var60 814)))
(assert (= "x" (CharAt var51 513)))
(assert (= "U" (CharAt var35 376)))
(assert (= "L" (CharAt var19 94)))
(assert (= "(" (CharAt var39 348)))
(assert (= "}" (CharAt var8 143)))
(assert (= "V" (CharAt var57 793)))
(assert (= "L" (CharAt var27 191)))
(assert (= "O" (CharAt var0 840)))
(assert (= "j" (CharAt var54 865)))
(assert (= "l" (CharAt var39 445)))
(assert (= "E" (CharAt var46 0)))
(assert (= "S" (CharAt var56 456)))
(assert (= "E" (CharAt var50 217)))
(assert (= "q" (CharAt var39 490)))
(assert (= "n" (CharAt var22 719)))
(assert (= "<" (CharAt var43 92)))
(assert (= "\\" (CharAt var56 271)))
(assert (= "@" (CharAt var36 300)))
(assert (= "O" (CharAt var56 443)))
(assert (= "<" (CharAt var44 606)))
(assert (= "9" (CharAt var44 417)))
(assert (= "q" (CharAt var44 340)))
(assert (= "T" (CharAt var29 441)))
(assert (= "T" (CharAt var46 819)))
(assert (= "s" (CharAt var6 295)))
(assert (= "y" (CharAt var14 133)))
(assert (= "V" (CharAt var46 877)))
(assert (= "W" (CharAt var0 38)))
(assert (= "U" (CharAt var41 903)))
(assert (= "x" (CharAt var15 41)))
(assert (= "e" (CharAt var6 926)))
(assert (= "C" (CharAt var31 733)))
(assert (= "g" (CharAt var41 889)))
(assert (= "C" (CharAt var18 402)))
(assert (= "Q" (CharAt var39 349)))
(assert (= "=" (CharAt var17 457)))
(assert (= "." (CharAt var60 871)))
(assert (= "M" (CharAt var25 613)))
(assert (= "|" (CharAt var36 525)))
(assert (= "#" (CharAt var54 728)))
(assert (= "F" (CharAt var49 859)))
(assert (= "," (CharAt var6 224)))
(assert (= "C" (CharAt var16 667)))
(assert (= "8" (CharAt var28 341)))
(assert (= "[" (CharAt var53 916)))
(assert (= "L" (CharAt var8 162)))
(assert (= "/" (CharAt var29 402)))
(assert (= "^" (CharAt var17 254)))
(assert (= "q" (CharAt var38 701)))
(assert (= "\\" (CharAt var46 329)))
(assert (= "," (CharAt var53 54)))
(assert (= "v" (CharAt var45 722)))
(assert (= "S" (CharAt var3 554)))
(assert (= "[" (CharAt var1 724)))
(assert (= "9" (CharAt var58 590)))
(assert (= "p" (CharAt var43 829)))
(assert (= "2" (CharAt var28 695)))
(assert (= "G" (CharAt var1 410)))
(assert (= "C" (CharAt var27 127)))
(assert (= "4" (CharAt var36 813)))
(assert (= "@" (CharAt var7 125)))
(assert (= "m" (CharAt var23 959)))
(assert (= "]" (CharAt var33 215)))
(assert (= "@" (CharAt var6 975)))
(assert (= "l" (CharAt var25 860)))
(assert (= "T" (CharAt var51 609)))
(assert (= "H" (CharAt var18 158)))
(assert (= "2" (CharAt var11 784)))
(assert (= "K" (CharAt var5 320)))
(assert (= "\"" (CharAt var48 207)))
(assert (= "4" (CharAt var46 423)))
(assert (= "l" (CharAt var0 107)))
(assert (= "<" (CharAt var30 738)))
(assert (= "$" (CharAt var28 216)))
(assert (= "3" (CharAt var48 791)))
(assert (= "F" (CharAt var36 832)))
(assert (= "u" (CharAt var21 900)))
(assert (= "[" (CharAt var19 417)))
(assert (= "7" (CharAt var35 273)))
(assert (= "?" (CharAt var50 598)))
(assert (= "o" (CharAt var44 259)))
(assert (= "\\" (CharAt var28 999)))
(assert (= "-" (CharAt var32 136)))
(assert (= "X" (CharAt var0 340)))
(assert (= "s" (CharAt var36 749)))
(assert (= "@" (CharAt var21 603)))
(assert (= "x" (CharAt var2 621)))
(assert (= "_" (CharAt var47 856)))
(assert (= "]" (CharAt var43 547)))
(assert (= "'" (CharAt var46 437)))
(assert (= "2" (CharAt var17 804)))
(assert (= "p" (CharAt var5 711)))
(assert (= "x" (CharAt var52 546)))
(assert (= "7" (CharAt var36 675)))
(assert (= "=" (CharAt var14 472)))
(assert (= "u" (CharAt var21 636)))
(assert (= "i" (CharAt var16 200)))
(assert (= ")" (CharAt var43 423)))
(assert (= "1" (CharAt var36 848)))
(assert (= "{" (CharAt var36 994)))
(assert (= "b" (CharAt var9 603)))
(assert (= ":" (CharAt var16 148)))
(assert (= "l" (CharAt var47 393)))
(assert (= "x" (CharAt var13 215)))
(assert (= "u" (CharAt var58 701)))
(assert (= "{" (CharAt var6 385)))
(assert (= "/" (CharAt var38 158)))
(assert (= "5" (CharAt var30 693)))
(assert (= "-" (CharAt var37 582)))
(assert (= "c" (CharAt var40 385)))
(assert (= "m" (CharAt var17 251)))
(assert (= "7" (CharAt var56 682)))
(assert (= "6" (CharAt var58 199)))
(assert (= "(" (CharAt var8 642)))
(assert (= "#" (CharAt var18 32)))
(assert (= "?" (CharAt var20 47)))
(assert (= "L" (CharAt var15 418)))
(assert (= "6" (CharAt var46 875)))
(assert (= "J" (CharAt var34 519)))
(assert (= "Z" (CharAt var19 920)))
(assert (= "\"" (CharAt var55 813)))
(assert (= "i" (CharAt var18 981)))
(assert (= "W" (CharAt var3 208)))
(assert (= "Q" (CharAt var9 700)))
(assert (= "@" (CharAt var40 901)))
(assert (= "|" (CharAt var14 882)))
(assert (= "O" (CharAt var40 283)))
(assert (= "&" (CharAt var31 983)))
(assert (= "6" (CharAt var51 901)))
(assert (= "B" (CharAt var40 452)))
(assert (= "#" (CharAt var16 470)))
(assert (= "j" (CharAt var48 351)))
(assert (= "8" (CharAt var36 89)))
(assert (= "I" (CharAt var54 786)))
(assert (= "z" (CharAt var29 289)))
(assert (= "g" (CharAt var18 205)))
(assert (= "1" (CharAt var6 110)))
(assert (= "h" (CharAt var41 725)))
(assert (= "z" (CharAt var35 192)))
(assert (= "?" (CharAt var3 633)))
(assert (= "t" (CharAt var27 696)))
(assert (= "j" (CharAt var33 383)))
(assert (= "n" (CharAt var4 44)))
(assert (= "a" (CharAt var37 439)))
(assert (= "T" (CharAt var8 527)))
(assert (= "[" (CharAt var9 767)))
(assert (= "i" (CharAt var24 297)))
(assert (= "s" (CharAt var56 79)))
(assert (= "q" (CharAt var2 730)))
(assert (= "F" (CharAt var34 324)))
(assert (= "N" (CharAt var52 686)))
(assert (= "f" (CharAt var25 57)))
(assert (= "Y" (CharAt var35 658)))
(assert (= "^" (CharAt var11 581)))
(assert (= "l" (CharAt var29 765)))
(assert (= "~" (CharAt var2 218)))
(assert (= ">" (CharAt var14 595)))
(assert (= "d" (CharAt var29 274)))
(assert (= "k" (CharAt var35 110)))
(assert (= "Q" (CharAt var51 819)))
(assert (= "l" (CharAt var55 22)))
(assert (= "K" (CharAt var54 759)))
(assert (= "t" (CharAt var5 953)))
(assert (= "P" (CharAt var55 66)))
(assert (= "P" (CharAt var38 631)))
(assert (= "E" (CharAt var10 273)))
(assert (= "@" (CharAt var4 826)))
(assert (= "o" (CharAt var55 873)))
(assert (= "y" (CharAt var10 764)))
(assert (= "t" (CharAt var49 886)))
(assert (= "x" (CharAt var12 986)))
(assert (= "q" (CharAt var51 411)))
(assert (= "*" (CharAt var22 725)))
(assert (= "z" (CharAt var2 49)))
(assert (= "}" (CharAt var27 499)))
(assert (= "/" (CharAt var26 864)))
(assert (= "z" (CharAt var27 767)))
(assert (= "n" (CharAt var19 601)))
(assert (= "W" (CharAt var51 737)))
(assert (= "Q" (CharAt var44 187)))
(assert (= "D" (CharAt var6 91)))
(assert (= ":" (CharAt var18 207)))
(assert (= "U" (CharAt var19 948)))
(assert (= "~" (CharAt var56 295)))
(assert (= "!" (CharAt var40 540)))
(assert (= "t" (CharAt var52 665)))
(assert (= "_" (CharAt var18 176)))
(assert (= "R" (CharAt var47 637)))
(assert (= "I" (CharAt var56 930)))
(assert (= "Q" (CharAt var1 127)))
(assert (= "I" (CharAt var5 382)))
(assert (= "p" (CharAt var3 334)))
(assert (= "4" (CharAt var57 64)))
(assert (= "q" (CharAt var12 783)))
(assert (= "k" (CharAt var58 527)))
(assert (= "/" (CharAt var44 808)))
(assert (= "M" (CharAt var1 1000)))
(assert (= "Y" (CharAt var15 408)))
(assert (= "k" (CharAt var34 540)))
(assert (= "1" (CharAt var3 764)))
(assert (= "T" (CharAt var11 810)))
(assert (= "=" (CharAt var23 998)))
(assert (= "E" (CharAt var35 855)))
(assert (= "A" (CharAt var27 975)))
(assert (= "4" (CharAt var54 43)))
(assert (= "z" (CharAt var6 535)))
(assert (= "8" (CharAt var43 797)))
(assert (= "L" (CharAt var29 350)))
(assert (= "f" (CharAt var11 133)))
(assert (= "U" (CharAt var41 451)))
(assert (= "V" (CharAt var16 572)))
(assert (= "K" (CharAt var44 629)))
(assert (= "x" (CharAt var9 539)))
(assert (= ">" (CharAt var2 298)))
(assert (= "B" (CharAt var42 509)))
(assert (= "^" (CharAt var2 962)))
(assert (= "2" (CharAt var50 12)))
(assert (= "q" (CharAt var22 551)))
(assert (= ")" (CharAt var46 116)))
(assert (= "," (CharAt var29 972)))
(assert (= "_" (CharAt var40 576)))
(assert (= "]" (CharAt var59 558)))
(assert (= "$" (CharAt var17 983)))
(assert (= "U" (CharAt var16 920)))
(assert (= "." (CharAt var16 370)))
(assert (= "F" (CharAt var28 148)))
(assert (= "'" (CharAt var8 903)))
(assert (= "G" (CharAt var33 41)))
(assert (= "w" (CharAt var50 715)))
(assert (= "K" (CharAt var9 121)))
(assert (= "0" (CharAt var0 695)))
(assert (= "W" (CharAt var55 21)))
(assert (= "(" (CharAt var21 829)))
(assert (= "w" (CharAt var36 867)))
(assert (= "n" (CharAt var18 143)))
(assert (= "\\" (CharAt var44 514)))
(assert (= "'" (CharAt var39 409)))
(assert (= "|" (CharAt var51 383)))
(assert (= "X" (CharAt var5 323)))
(assert (= ")" (CharAt var6 432)))
(assert (= "O" (CharAt var36 52)))
(assert (= "&" (CharAt var7 417)))
(assert (= "(" (CharAt var19 952)))
(assert (= "+" (CharAt var48 817)))
(assert (= "D" (CharAt var34 46)))
(assert (= "O" (CharAt var36 255)))
(assert (= "k" (CharAt var59 916)))
(assert (= "B" (CharAt var51 390)))
(assert (= "*" (CharAt var18 998)))
(assert (= "w" (CharAt var24 26)))
(assert (= "Q" (CharAt var29 745)))
(assert (= "B" (CharAt var44 750)))
(assert (= "!" (CharAt var52 767)))
(assert (= "J" (CharAt var38 393)))
(assert (= "X" (CharAt var52 682)))
(assert (= "J" (CharAt var38 977)))
(assert (= "H" (CharAt var1 382)))
(assert (= "l" (CharAt var21 561)))
(assert (= "K" (CharAt var51 765)))
(assert (= "D" (CharAt var40 95)))
(assert (= "Y" (CharAt var5 890)))
(assert (= "_" (CharAt var27 601)))
(assert (= "0" (CharAt var12 230)))
(assert (= "9" (CharAt var10 188)))
(assert (= "C" (CharAt var44 321)))
(assert (= "8" (CharAt var54 850)))
(assert (= "S" (CharAt var25 788)))
(assert (= "L" (CharAt var24 710)))
(assert (= ":" (CharAt var24 295)))
(assert (= "'" (CharAt var0 495)))
(assert (= "H" (CharAt var1 887)))
(assert (= "Z" (CharAt var23 237)))
(assert (= "{" (CharAt var7 994)))
(assert (= "8" (CharAt var23 15)))
(assert (= "k" (CharAt var60 116)))
(assert (= "\\" (CharAt var31 844)))
(assert (= "z" (CharAt var31 567)))
(assert (= "v" (CharAt var25 336)))
(assert (= "M" (CharAt var19 872)))
(assert (= "W" (CharAt var19 665)))
(assert (= "N" (CharAt var5 462)))
(assert (= "p" (CharAt var60 936)))
(assert (= "+" (CharAt var29 242)))
(assert (= "b" (CharAt var48 18)))
(assert (= "@" (CharAt var13 477)))
(assert (= "z" (CharAt var30 868)))
(assert (= "^" (CharAt var47 351)))
(assert (= "n" (CharAt var53 593)))
(assert (= "W" (CharAt var1 703)))
(assert (= "B" (CharAt var50 731)))
(assert (= "H" (CharAt var40 98)))
(assert (= "<" (CharAt var38 943)))
(assert (= "," (CharAt var37 368)))
(assert (= "p" (CharAt var58 354)))
(assert (= "C" (CharAt var26 500)))
(assert (= "^" (CharAt var31 786)))
(assert (= "i" (CharAt var0 833)))
(assert (= "n" (CharAt var3 445)))
(assert (= "%" (CharAt var14 71)))
(assert (= "(" (CharAt var2 678)))
(assert (= "*" (CharAt var45 952)))
(assert (= "#" (CharAt var5 414)))
(assert (= "c" (CharAt var22 577)))
(assert (= "@" (CharAt var60 931)))
(assert (= "r" (CharAt var0 27)))
(assert (= "7" (CharAt var24 896)))
(assert (= "g" (CharAt var21 122)))
(assert (= "%" (CharAt var46 249)))
(assert (= "Z" (CharAt var15 297)))
(assert (= "}" (CharAt var45 377)))
(assert (= "+" (CharAt var58 899)))
(assert (= "W" (CharAt var9 857)))
(assert (= "n" (CharAt var34 648)))
(assert (= "m" (CharAt var2 352)))
(assert (= "&" (CharAt var17 521)))
(assert (= "m" (CharAt var8 139)))
(assert (= "H" (CharAt var48 68)))
(assert (= "Y" (CharAt var54 585)))
(assert (= "u" (CharAt var7 425)))
(assert (= "T" (CharAt var9 843)))
(assert (= "P" (CharAt var42 281)))
(assert (= "<" (CharAt var9 186)))
(assert (= "i" (CharAt var52 215)))
(assert (= "8" (CharAt var14 156)))
(assert (= "Y" (CharAt var21 622)))
(assert (= "Y" (CharAt var16 432)))
(assert (= "V" (CharAt var8 207)))
(assert (= "7" (CharAt var45 977)))
(assert (= "M" (CharAt var35 225)))
(assert (= "K" (CharAt var51 435)))
(assert (= ")" (CharAt var39 377)))
(assert (= "Y" (CharAt var44 736)))
(assert (= "`" (CharAt var26 488)))
(assert (= "[" (CharAt var23 282)))
(assert (= "m" (CharAt var47 567)))
(assert (= "\\" (CharAt var30 460)))
(assert (= "9" (CharAt var29 967)))
(assert (= "c" (CharAt var15 932)))
(assert (= "'" (CharAt var48 494)))
(assert (= "<" (CharAt var23 191)))
(assert (= ";" (CharAt var34 20)))
(assert (= "1" (CharAt var26 169)))
(assert (= "4" (CharAt var6 824)))
(assert (= "p" (CharAt var53 930)))
(assert (= "e" (CharAt var0 252)))
(assert (= "i" (CharAt var41 713)))
(assert (= "Q" (CharAt var13 786)))
(assert (= "z" (CharAt var16 986)))
(assert (= "y" (CharAt var9 273)))
(assert (= ":" (CharAt var35 872)))
(assert (= "J" (CharAt var11 834)))
(assert (= "`" (CharAt var21 435)))
(assert (= "X" (CharAt var19 401)))
(assert (= "q" (CharAt var32 810)))
(assert (= "e" (CharAt var59 124)))
(assert (= "l" (CharAt var58 249)))
(assert (= "[" (CharAt var47 268)))
(assert (= "k" (CharAt var3 126)))
(assert (= "~" (CharAt var10 550)))
(assert (= "%" (CharAt var8 996)))
(assert (= "o" (CharAt var42 373)))
(assert (= "+" (CharAt var20 381)))
(assert (= "I" (CharAt var58 42)))
(assert (= "t" (CharAt var15 310)))
(assert (= "O" (CharAt var33 762)))
(assert (= "=" (CharAt var26 538)))
(assert (= "8" (CharAt var41 11)))
(assert (= "x" (CharAt var55 411)))
(assert (= "]" (CharAt var23 205)))
(assert (= "A" (CharAt var8 238)))
(assert (= "v" (CharAt var26 122)))
(assert (= "(" (CharAt var12 94)))
(assert (= "s" (CharAt var6 187)))
(assert (= "Y" (CharAt var12 490)))
(assert (= "%" (CharAt var43 355)))
(assert (= "A" (CharAt var14 818)))
(assert (= "}" (CharAt var46 748)))
(assert (= "P" (CharAt var37 571)))
(assert (= ":" (CharAt var7 824)))
(assert (= "t" (CharAt var6 10)))
(assert (= "i" (CharAt var41 592)))
(assert (= "v" (CharAt var49 93)))
(assert (= "r" (CharAt var29 201)))
(assert (= "c" (CharAt var42 84)))
(assert (= "\\" (CharAt var15 232)))
(assert (= "/" (CharAt var16 530)))
(assert (= "M" (CharAt var36 773)))
(assert (= "}" (CharAt var6 275)))
(assert (= "J" (CharAt var13 534)))
(assert (= "Z" (CharAt var28 42)))
(assert (= "W" (CharAt var30 639)))
(assert (= "^" (CharAt var27 314)))
(assert (= "5" (CharAt var1 8)))
(assert (= "^" (CharAt var39 266)))
(assert (= "V" (CharAt var46 24)))
(assert (= "z" (CharAt var23 830)))
(assert (= "I" (CharAt var9 884)))
(assert (= "L" (CharAt var49 870)))
(assert (= "3" (CharAt var0 900)))
(assert (= "T" (CharAt var43 372)))
(assert (= "_" (CharAt var34 792)))
(assert (= "C" (CharAt var17 985)))
(assert (= "k" (CharAt var8 42)))
(assert (= "%" (CharAt var2 971)))
(assert (= "P" (CharAt var2 707)))
(assert (= "s" (CharAt var5 672)))
(assert (= "d" (CharAt var53 210)))
(assert (= "|" (CharAt var12 111)))
(assert (= "-" (CharAt var20 541)))
(assert (= "H" (CharAt var31 454)))
(assert (= "b" (CharAt var50 459)))
(assert (= "." (CharAt var2 96)))
(assert (= "U" (CharAt var48 136)))
(assert (= "1" (CharAt var5 441)))
(assert (= "\\" (CharAt var6 694)))
(assert (= "W" (CharAt var24 452)))
(assert (= "q" (CharAt var2 834)))
(assert (= "`" (CharAt var53 105)))
(assert (= "\"" (CharAt var17 363)))
(assert (= "0" (CharAt var57 125)))
(assert (= "U" (CharAt var21 356)))
(assert (= "s" (CharAt var29 379)))
(assert (= "N" (CharAt var37 676)))
(assert (= "," (CharAt var2 18)))
(assert (= "g" (CharAt var5 50)))
(assert (= "-" (CharAt var20 43)))
(assert (= "s" (CharAt var36 815)))
(assert (= "!" (CharAt var34 621)))
(assert (= ">" (CharAt var48 877)))
(assert (= "h" (CharAt var48 665)))
(assert (= "@" (CharAt var58 682)))
(assert (= "R" (CharAt var9 786)))
(assert (= "Q" (CharAt var14 327)))
(assert (= "W" (CharAt var59 651)))
(assert (= "R" (CharAt var20 722)))
(assert (= "G" (CharAt var23 105)))
(assert (= "&" (CharAt var56 696)))
(assert (= "c" (CharAt var29 913)))
(assert (= "^" (CharAt var8 828)))
(assert (= "5" (CharAt var38 53)))
(assert (= "v" (CharAt var56 328)))
(assert (= "T" (CharAt var9 522)))
(assert (= "@" (CharAt var15 457)))
(assert (= "S" (CharAt var38 675)))
(assert (= "Y" (CharAt var54 556)))
(assert (= ";" (CharAt var60 71)))
(assert (= "P" (CharAt var4 974)))
(assert (= "U" (CharAt var48 426)))
(assert (= "8" (CharAt var5 671)))
(assert (= "$" (CharAt var30 75)))
(assert (= "^" (CharAt var8 491)))
(assert (= "t" (CharAt var0 393)))
(assert (= "t" (CharAt var30 684)))
(assert (= "}" (CharAt var54 350)))
(assert (= "Z" (CharAt var11 817)))
(assert (= "v" (CharAt var29 976)))
(assert (= "[" (CharAt var33 967)))
(assert (= "P" (CharAt var24 255)))
(assert (= "&" (CharAt var55 102)))
(assert (= "4" (CharAt var58 608)))
(assert (= "u" (CharAt var37 767)))
(assert (= "t" (CharAt var51 273)))
(assert (= "#" (CharAt var46 438)))
(assert (= "6" (CharAt var12 486)))
(assert (= "i" (CharAt var19 987)))
(assert (= "#" (CharAt var9 669)))
(assert (= "p" (CharAt var20 39)))
(assert (= "e" (CharAt var15 399)))
(assert (= "T" (CharAt var21 737)))
(assert (= "_" (CharAt var2 263)))
(assert (= "_" (CharAt var50 21)))
(assert (= "o" (CharAt var57 530)))
(assert (= "c" (CharAt var32 761)))
(assert (= "+" (CharAt var10 182)))
(assert (= "U" (CharAt var40 597)))
(assert (= "k" (CharAt var41 772)))
(assert (= "\"" (CharAt var41 429)))
(assert (= "&" (CharAt var56 551)))
(assert (= "'" (CharAt var30 679)))
(assert (= "Q" (CharAt var24 171)))
(assert (= "W" (CharAt var32 651)))
(assert (= "o" (CharAt var1 513)))
(assert (= "<" (CharAt var2 443)))
(assert (= "#" (CharAt var19 322)))
(assert (= "v" (CharAt var49 966)))
(assert (= "k" (CharAt var57 907)))
(assert (= "4" (CharAt var23 75)))
(assert (= "p" (CharAt var38 575)))
(assert (= "Q" (CharAt var31 364)))
(assert (= "#" (CharAt var37 237)))
(assert (= "u" (CharAt var47 347)))
(assert (= "," (CharAt var23 121)))
(assert (= "|" (CharAt var38 279)))
(assert (= "z" (CharAt var22 158)))
(assert (= ")" (CharAt var12 313)))
(assert (= "Q" (CharAt var24 673)))
(assert (= "Q" (CharAt var50 879)))
(assert (= "I" (CharAt var52 91)))
(assert (= "a" (CharAt var40 483)))
(assert (= "." (CharAt var50 527)))
(assert (= "f" (CharAt var3 158)))
(assert (= "j" (CharAt var23 680)))
(assert (= "_" (CharAt var28 210)))
(assert (= "a" (CharAt var10 388)))
(assert (= "d" (CharAt var48 923)))
(assert (= "@" (CharAt var35 887)))
(assert (= "g" (CharAt var36 616)))
(assert (= "+" (CharAt var1 403)))
(assert (= "+" (CharAt var48 510)))
(assert (= "E" (CharAt var38 270)))
(assert (= "N" (CharAt var26 174)))
(assert (= "8" (CharAt var40 288)))
(assert (= "I" (CharAt var46 38)))
(assert (= "8" (CharAt var27 42)))
(assert (= "h" (CharAt var40 948)))
(assert (= "'" (CharAt var46 310)))
(assert (= ";" (CharAt var23 313)))
(assert (= "o" (CharAt var6 586)))
(assert (= "k" (CharAt var13 999)))
(assert (= "q" (CharAt var35 164)))
(assert (= "'" (CharAt var9 782)))
(assert (= "O" (CharAt var17 388)))
(assert (= "<" (CharAt var24 908)))
(assert (= "&" (CharAt var11 642)))
(assert (= "i" (CharAt var50 420)))
(assert (= "@" (CharAt var10 122)))
(assert (= "b" (CharAt var52 416)))
(assert (= "9" (CharAt var33 503)))
(assert (= "P" (CharAt var13 299)))
(assert (= "i" (CharAt var35 332)))
(assert (= "\"" (CharAt var27 377)))
(assert (= "b" (CharAt var13 334)))
(assert (= "E" (CharAt var1 9)))
(assert (= "6" (CharAt var54 601)))
(assert (= "E" (CharAt var12 568)))
(assert (= "i" (CharAt var34 87)))
(assert (= "=" (CharAt var38 771)))
(assert (= "w" (CharAt var8 243)))
(assert (= "Q" (CharAt var1 850)))
(assert (= "b" (CharAt var56 356)))
(assert (= "~" (CharAt var48 747)))
(assert (= "L" (CharAt var3 886)))
(assert (= "2" (CharAt var38 408)))
(assert (= "Z" (CharAt var22 480)))
(assert (= "C" (CharAt var53 683)))
(assert (= "T" (CharAt var17 498)))
(assert (= "f" (CharAt var35 554)))
(assert (= "8" (CharAt var4 101)))
(assert (= ":" (CharAt var11 209)))
(assert (= "'" (CharAt var51 693)))
(assert (= "j" (CharAt var20 891)))
(assert (= "z" (CharAt var56 251)))
(assert (= "}" (CharAt var59 629)))
(assert (= "_" (CharAt var55 53)))
(assert (= "B" (CharAt var31 533)))
(assert (= "6" (CharAt var10 792)))
(assert (= "z" (CharAt var8 879)))
(assert (= "i" (CharAt var45 894)))
(assert (= "s" (CharAt var58 127)))
(assert (= "t" (CharAt var26 814)))
(assert (= "`" (CharAt var28 495)))
(assert (= "H" (CharAt var25 2)))
(assert (= "<" (CharAt var40 469)))
(assert (= "4" (CharAt var2 279)))
(assert (= "Y" (CharAt var5 876)))
(assert (= "F" (CharAt var43 74)))
(assert (= "^" (CharAt var18 113)))
(assert (= ";" (CharAt var56 584)))
(assert (= "=" (CharAt var39 736)))
(assert (= "j" (CharAt var54 500)))
(assert (= "o" (CharAt var48 379)))
(assert (= "^" (CharAt var26 627)))
(assert (= "\"" (CharAt var13 510)))
(assert (= "%" (CharAt var18 763)))
(assert (= "B" (CharAt var57 600)))
(assert (= "1" (CharAt var53 123)))
(assert (= "!" (CharAt var4 790)))
(assert (= "|" (CharAt var48 574)))
(assert (= "," (CharAt var34 496)))
(assert (= "Q" (CharAt var31 262)))
(assert (= "0" (CharAt var24 173)))
(assert (= "S" (CharAt var29 86)))
(assert (= "~" (CharAt var50 992)))
(assert (= "e" (CharAt var55 636)))
(assert (= "|" (CharAt var55 82)))
(assert (= "#" (CharAt var22 82)))
(assert (= "'" (CharAt var51 16)))
(assert (= "g" (CharAt var32 112)))
(assert (= ")" (CharAt var32 184)))
(assert (= "m" (CharAt var41 158)))
(assert (= "z" (CharAt var43 420)))
(assert (= "h" (CharAt var18 883)))
(assert (= "B" (CharAt var19 251)))
(assert (= "V" (CharAt var8 438)))
(assert (= "h" (CharAt var4 639)))
(assert (= "Q" (CharAt var21 364)))
(assert (= "|" (CharAt var14 207)))
(assert (= "E" (CharAt var5 921)))
(assert (= "H" (CharAt var6 308)))
(assert (= "c" (CharAt var38 618)))
(assert (= "}" (CharAt var34 731)))
(assert (= "n" (CharAt var23 783)))
(assert (= "/" (CharAt var29 697)))
(assert (= "*" (CharAt var2 543)))
(assert (= "2" (CharAt var26 44)))
(assert (= "{" (CharAt var60 872)))
(assert (= "7" (CharAt var50 893)))
(assert (= ")" (CharAt var6 405)))
(assert (= "P" (CharAt var41 86)))
(assert (= "T" (CharAt var55 691)))
(assert (= "x" (CharAt var3 548)))
(assert (= "W" (CharAt var23 367)))
(assert (= "X" (CharAt var10 643)))
(assert (= "H" (CharAt var55 0)))
(assert (= "h" (CharAt var43 648)))
(assert (= "r" (CharAt var32 256)))
(assert (= "\\" (CharAt var8 700)))
(assert (= "l" (CharAt var41 609)))
(assert (= "q" (CharAt var57 151)))
(assert (= "#" (CharAt var15 820)))
(assert (= "f" (CharAt var32 275)))
(assert (= "O" (CharAt var27 326)))
(assert (= "B" (CharAt var26 321)))
(assert (= ":" (CharAt var46 22)))
(assert (= "I" (CharAt var28 150)))
(assert (= "!" (CharAt var57 663)))
(assert (= "J" (CharAt var38 856)))
(assert (= "y" (CharAt var14 852)))
(assert (= ";" (CharAt var30 704)))
(assert (= "5" (CharAt var49 729)))
(assert (= "5" (CharAt var53 985)))
(assert (= "q" (CharAt var53 480)))
(assert (= "C" (CharAt var25 623)))
(assert (= "i" (CharAt var19 465)))
(assert (= "i" (CharAt var58 942)))
(assert (= "r" (CharAt var1 76)))
(assert (= "k" (CharAt var42 766)))
(assert (= "/" (CharAt var5 160)))
(assert (= "}" (CharAt var10 179)))
(check-sat)